(declare-fun var0 () String)
(assert (str.in.re var0 (re.++ (re.* (re.* (str.to.re "z"))) (re.++ (re.union (re.union (str.to.re "vvv") (str.to.re "www")) (re.union (str.to.re "x") (str.to.re "yyy"))) (re.++ (re.+ (re.+ (str.to.re "uuu"))) (re.++ (re.union (re.union (str.to.re "q") (str.to.re "rrr")) (re.union (str.to.re "sss") (str.to.re "tt"))) (re.++ (re.union (re.union (str.to.re "mmm") (str.to.re "nn")) (re.union (str.to.re "o") (str.to.re "p"))) (re.++ (re.* (re.+ (str.to.re "l"))) (re.++ (re.union (re.+ (str.to.re "jjj")) (re.* (str.to.re "k"))) (re.++ (re.* (re.* (str.to.re "iii"))) (re.++ (re.* (re.union (str.to.re "gg") (str.to.re "hh"))) (re.++ (re.union (re.* (str.to.re "d")) (re.union (str.to.re "ee") (str.to.re "ff"))) (re.++ (re.* (re.union (str.to.re "bbb") (str.to.re "cc"))) (re.++ (re.* (re.+ (str.to.re "a"))) (re.++ (re.* (re.union (str.to.re "88") (str.to.re "9"))) (re.++ (re.+ (re.union (str.to.re "666") (str.to.re "7"))) (re.++ (re.* (re.union (str.to.re "4") (str.to.re "55"))) (re.++ (re.+ (re.* (str.to.re "3"))) (re.++ (re.+ (re.union (str.to.re "111") (str.to.re "222"))) (re.++ (re.union (re.+ (str.to.re "~~")) (re.+ (str.to.re "00"))) (re.++ (re.union (re.* (str.to.re "{{")) (re.union (str.to.re "|||") (str.to.re "}}"))) (re.++ (re.* (re.* (str.to.re "``"))) (re.++ (re.* (re.union (str.to.re "^") (str.to.re "_"))) (re.++ (re.union (re.* (str.to.re "\\")) (re.+ (str.to.re "]"))) (re.++ (re.union (re.+ (str.to.re "@")) (re.+ (str.to.re "[["))) (re.++ (re.+ (re.* (str.to.re "???"))) (re.++ (re.* (re.* (str.to.re ">"))) (re.++ (re.* (re.+ (str.to.re "==="))) (re.++ (re.* (re.+ (str.to.re "<<"))) (re.++ (re.+ (re.* (str.to.re ";;"))) (re.++ (re.+ (re.* (str.to.re "::"))) (re.++ (re.+ (re.union (str.to.re "...") (str.to.re "///"))) (re.++ (re.+ (re.* (str.to.re "--"))) (re.++ (re.+ (re.union (str.to.re "+") (str.to.re ",,"))) (re.++ (re.union (re.union (str.to.re "''") (str.to.re "((")) (re.union (str.to.re ")))") (str.to.re "***"))) (re.++ (re.+ (re.union (str.to.re "%") (str.to.re "&&"))) (re.++ (re.* (re.* (str.to.re "$$$"))) (re.++ (re.* (re.union (str.to.re """") (str.to.re "###"))) (re.++ (re.union (re.+ (str.to.re "ZZZ")) (re.+ (str.to.re "!!!"))) (re.++ (re.* (re.union (str.to.re "X") (str.to.re "Y"))) (re.++ (re.union (re.* (str.to.re "UU")) (re.union (str.to.re "VVV") (str.to.re "WW"))) (re.++ (re.union (re.union (str.to.re "RRR") (str.to.re "SSS")) (re.* (str.to.re "TT"))) (re.++ (re.+ (re.union (str.to.re "PP") (str.to.re "Q"))) (re.++ (re.union (re.union (str.to.re "M") (str.to.re "NN")) (re.* (str.to.re "OO"))) (re.++ (re.union (re.+ (str.to.re "KKK")) (re.+ (str.to.re "LLL"))) (re.++ (re.+ (re.union (str.to.re "I") (str.to.re "J"))) (re.++ (re.+ (re.* (str.to.re "H"))) (re.++ (re.+ (re.union (str.to.re "FFF") (str.to.re "GG"))) (re.++ (re.union (re.* (str.to.re "D")) (re.* (str.to.re "E"))) (re.++ (re.+ (re.union (str.to.re "B") (str.to.re "CC"))) (re.++ (re.+ (re.* (str.to.re "AA"))) (re.++ (re.+ (re.* (str.to.re "zz"))) (re.++ (re.+ (re.* (str.to.re "yyy"))) (re.++ (re.union (re.union (str.to.re "vv") (str.to.re "w")) (re.* (str.to.re "xxx"))) (re.++ (re.+ (re.union (str.to.re "ttt") (str.to.re "u"))) (re.++ (re.* (re.union (str.to.re "rrr") (str.to.re "ss"))) (re.++ (re.+ (re.* (str.to.re "qqq"))) (re.++ (re.* (re.union (str.to.re "ooo") (str.to.re "p"))) (re.++ (re.* (re.+ (str.to.re "n"))) (re.++ (re.union (re.* (str.to.re "kkk")) (re.union (str.to.re "lll") (str.to.re "m"))) (re.++ (re.union (re.* (str.to.re "hhh")) (re.union (str.to.re "ii") (str.to.re "j"))) (re.++ (re.+ (re.union (str.to.re "ff") (str.to.re "ggg"))) (re.++ (re.* (re.+ (str.to.re "eee"))) (re.++ (re.+ (re.* (str.to.re "ddd"))) (re.++ (re.* (re.+ (str.to.re "ccc"))) (re.++ (re.* (re.+ (str.to.re "b"))) (re.++ (re.+ (re.* (str.to.re "a"))) (re.++ (re.* (re.union (str.to.re "88") (str.to.re "99"))) (re.++ (re.+ (re.union (str.to.re "6") (str.to.re "777"))) (re.++ (re.+ (re.union (str.to.re "444") (str.to.re "5"))) (re.++ (re.* (re.+ (str.to.re "33"))) (re.++ (re.* (re.* (str.to.re "222"))) (re.+ (re.union (str.to.re "000") (str.to.re "111")))))))))))))))))))))))))))))))))))))))))))))))))))))))))))))))))))))))))))
(assert (not (str.in.re var0 (re.++ (re.+ (re.* (str.to.re "ggg"))) (re.++ (re.* (re.union (str.to.re "ee") (str.to.re "fff"))) (re.++ (re.+ (re.+ (str.to.re "dd"))) (re.++ (re.union (re.union (str.to.re "99") (str.to.re "a")) (re.union (str.to.re "bb") (str.to.re "c"))) (re.++ (re.* (re.+ (str.to.re "8"))) (re.++ (re.+ (re.+ (str.to.re "7"))) (re.++ (re.* (re.* (str.to.re "666"))) (re.++ (re.union (re.+ (str.to.re "4")) (re.* (str.to.re "5"))) (re.++ (re.* (re.* (str.to.re "33"))) (re.++ (re.+ (re.* (str.to.re "2"))) (re.++ (re.* (re.union (str.to.re "00") (str.to.re "1"))) (re.++ (re.* (re.+ (str.to.re "~~~"))) (re.++ (re.* (re.+ (str.to.re "}}"))) (re.++ (re.union (re.+ (str.to.re "{")) (re.* (str.to.re "|||"))) (re.++ (re.* (re.* (str.to.re "`"))) (re.++ (re.* (re.+ (str.to.re "___"))) (re.++ (re.* (re.+ (str.to.re "^^"))) (re.++ (re.* (re.+ (str.to.re "]"))) (re.++ (re.* (re.union (str.to.re "[[") (str.to.re "\\\\\\"))) (re.++ (re.* (re.* (str.to.re "@@@"))) (re.++ (re.union (re.* (str.to.re "===")) (re.union (str.to.re ">>>") (str.to.re "?"))) (re.++ (re.+ (re.+ (str.to.re "<"))) (re.++ (re.* (re.* (str.to.re ";;;"))) (re.++ (re.* (re.+ (str.to.re ":::"))) (re.++ (re.+ (re.+ (str.to.re "///"))) (re.++ (re.union (re.+ (str.to.re ",")) (re.union (str.to.re "-") (str.to.re "."))) (re.++ (re.* (re.+ (str.to.re "+"))) (re.++ (re.+ (re.union (str.to.re "))") (str.to.re "*"))) (re.++ (re.union (re.+ (str.to.re "&&&")) (re.union (str.to.re "'''") (str.to.re "("))) (re.++ (re.* (re.union (str.to.re "$$$") (str.to.re "%%"))) (re.++ (re.* (re.* (str.to.re "##"))) (re.++ (re.* (re.+ (str.to.re """"""""))) (re.++ (re.* (re.+ (str.to.re "!"))) (re.++ (re.* (re.+ (str.to.re "ZZZ"))) (re.++ (re.+ (re.* (str.to.re "Y"))) (re.++ (re.union (re.* (str.to.re "WW")) (re.+ (str.to.re "XX"))) (re.++ (re.* (re.* (str.to.re "VVV"))) (re.++ (re.+ (re.* (str.to.re "UU"))) (re.++ (re.+ (re.+ (str.to.re "T"))) (re.++ (re.+ (re.* (str.to.re "S"))) (re.++ (re.* (re.+ (str.to.re "RRR"))) (re.++ (re.+ (re.+ (str.to.re "QQ"))) (re.++ (re.union (re.union (str.to.re "MM") (str.to.re "NN")) (re.union (str.to.re "OO") (str.to.re "PP"))) (re.++ (re.* (re.* (str.to.re "LLL"))) (re.++ (re.* (re.+ (str.to.re "K"))) (re.++ (re.* (re.+ (str.to.re "J"))) (re.++ (re.union (re.+ (str.to.re "HHH")) (re.+ (str.to.re "II"))) (re.++ (re.union (re.* (str.to.re "FF")) (re.* (str.to.re "GG"))) (re.++ (re.+ (re.union (str.to.re "D") (str.to.re "E"))) (re.++ (re.* (re.* (str.to.re "C"))) (re.++ (re.+ (re.union (str.to.re "AAA") (str.to.re "B"))) (re.++ (re.* (re.* (str.to.re "z"))) (re.++ (re.union (re.union (str.to.re "www") (str.to.re "x")) (re.* (str.to.re "yy"))) (re.++ (re.union (re.* (str.to.re "uu")) (re.+ (str.to.re "vvv"))) (re.++ (re.+ (re.* (str.to.re "t"))) (re.++ (re.union (re.+ (str.to.re "r")) (re.* (str.to.re "sss"))) (re.++ (re.+ (re.union (str.to.re "p") (str.to.re "qqq"))) (re.++ (re.union (re.+ (str.to.re "n")) (re.* (str.to.re "ooo"))) (re.++ (re.+ (re.+ (str.to.re "mmm"))) (re.++ (re.* (re.union (str.to.re "kkk") (str.to.re "ll"))) (re.++ (re.+ (re.+ (str.to.re "jj"))) (re.++ (re.* (re.union (str.to.re "h") (str.to.re "iii"))) (re.++ (re.* (re.+ (str.to.re "gg"))) (re.++ (re.+ (re.union (str.to.re "ee") (str.to.re "f"))) (re.++ (re.* (re.union (str.to.re "cc") (str.to.re "d"))) (re.++ (re.union (re.union (str.to.re "99") (str.to.re "a")) (re.+ (str.to.re "bb"))) (re.++ (re.union (re.+ (str.to.re "7")) (re.+ (str.to.re "888"))) (re.++ (re.union (re.union (str.to.re "44") (str.to.re "555")) (re.+ (str.to.re "666"))) (re.++ (re.* (re.* (str.to.re "3"))) (re.++ (re.union (re.* (str.to.re "11")) (re.+ (str.to.re "2"))) (re.* (re.* (str.to.re "000"))))))))))))))))))))))))))))))))))))))))))))))))))))))))))))))))))))))))))))
(check-sat)